p cnf 107 680
-1 -2 0
-1 -3 0
-1 -4 0
-1 -5 0
-1 -6 0
-2 -3 0
-2 -4 0
-2 -5 0
-2 -6 0
-3 -4 0
-3 -5 0
-3 -6 0
-4 -5 0
-4 -6 0
-5 -6 0
1 2 3 4 5 6 0
-7 -8 0
-7 -9 0
-7 -10 0
-7 -11 0
-7 -12 0
-7 -13 0
-7 -14 0
-8 -9 0
-8 -10 0
-8 -11 0
-8 -12 0
-8 -13 0
-8 -14 0
-9 -10 0
-9 -11 0
-9 -12 0
-9 -13 0
-9 -14 0
-10 -11 0
-10 -12 0
-10 -13 0
-10 -14 0
-11 -12 0
-11 -13 0
-11 -14 0
-12 -13 0
-12 -14 0
-13 -14 0
7 8 9 10 11 12 13 14 0
-1 -15 0
-1 -16 0
-1 -17 0
-1 -18 0
-15 -16 0
-15 -17 0
-15 -18 0
-16 -17 0
-16 -18 0
-17 -18 0
1 15 16 17 18 0
-7 -19 0
-7 -20 0
-19 -20 0
7 19 20 0
-21 -22 0
-21 -23 0
-21 -24 0
-21 -25 0
-21 -26 0
-22 -23 0
-22 -24 0
-22 -25 0
-22 -26 0
-23 -24 0
-23 -25 0
-23 -26 0
-24 -25 0
-24 -26 0
-25 -26 0
21 22 23 24 25 26 0
-27 -28 0
-27 -29 0
-28 -29 0
27 28 29 0
-30 -31 0
-30 -32 0
-31 -32 0
30 31 32 0
-2 -8 0
-2 -30 0
-2 -33 0
-2 -34 0
-2 -35 0
-8 -30 0
-8 -33 0
-8 -34 0
-8 -35 0
-30 -33 0
-30 -34 0
-30 -35 0
-33 -34 0
-33 -35 0
-34 -35 0
2 8 30 33 34 35 0
-21 -31 0
-21 -36 0
-21 -37 0
-21 -38 0
-21 -39 0
-21 -40 0
-21 -41 0
-21 -42 0
-21 -43 0
-31 -36 0
-31 -37 0
-31 -38 0
-31 -39 0
-31 -40 0
-31 -41 0
-31 -42 0
-31 -43 0
-36 -37 0
-36 -38 0
-36 -39 0
-36 -40 0
-36 -41 0
-36 -42 0
-36 -43 0
-37 -38 0
-37 -39 0
-37 -40 0
-37 -41 0
-37 -42 0
-37 -43 0
-38 -39 0
-38 -40 0
-38 -41 0
-38 -42 0
-38 -43 0
-39 -40 0
-39 -41 0
-39 -42 0
-39 -43 0
-40 -41 0
-40 -42 0
-40 -43 0
-41 -42 0
-41 -43 0
-42 -43 0
21 31 36 37 38 39 40 41 42 43 0
-9 -22 0
-9 -44 0
-9 -45 0
-9 -46 0
-9 -47 0
-9 -48 0
-9 -49 0
-22 -44 0
-22 -45 0
-22 -46 0
-22 -47 0
-22 -48 0
-22 -49 0
-44 -45 0
-44 -46 0
-44 -47 0
-44 -48 0
-44 -49 0
-45 -46 0
-45 -47 0
-45 -48 0
-45 -49 0
-46 -47 0
-46 -48 0
-46 -49 0
-47 -48 0
-47 -49 0
-48 -49 0
9 22 44 45 46 47 48 49 0
-36 -50 0
-36 -51 0
-36 -52 0
-36 -53 0
-36 -54 0
-50 -51 0
-50 -52 0
-50 -53 0
-50 -54 0
-51 -52 0
-51 -53 0
-51 -54 0
-52 -53 0
-52 -54 0
-53 -54 0
36 50 51 52 53 54 0
-37 -44 0
-37 -55 0
-37 -56 0
-37 -57 0
-37 -58 0
-37 -59 0
-37 -60 0
-37 -61 0
-44 -55 0
-44 -56 0
-44 -57 0
-44 -58 0
-44 -59 0
-44 -60 0
-44 -61 0
-55 -56 0
-55 -57 0
-55 -58 0
-55 -59 0
-55 -60 0
-55 -61 0
-56 -57 0
-56 -58 0
-56 -59 0
-56 -60 0
-56 -61 0
-57 -58 0
-57 -59 0
-57 -60 0
-57 -61 0
-58 -59 0
-58 -60 0
-58 -61 0
-59 -60 0
-59 -61 0
-60 -61 0
37 44 55 56 57 58 59 60 61 0
-38 -50 0
-38 -62 0
-38 -63 0
-38 -64 0
-38 -65 0
-38 -66 0
-38 -67 0
-38 -68 0
-50 -62 0
-50 -63 0
-50 -64 0
-50 -65 0
-50 -66 0
-50 -67 0
-50 -68 0
-62 -63 0
-62 -64 0
-62 -65 0
-62 -66 0
-62 -67 0
-62 -68 0
-63 -64 0
-63 -65 0
-63 -66 0
-63 -67 0
-63 -68 0
-64 -65 0
-64 -66 0
-64 -67 0
-64 -68 0
-65 -66 0
-65 -67 0
-65 -68 0
-66 -67 0
-66 -68 0
-67 -68 0
38 50 62 63 64 65 66 67 68 0
-3 -33 0
-3 -69 0
-3 -70 0
-3 -71 0
-33 -69 0
-33 -70 0
-33 -71 0
-69 -70 0
-69 -71 0
-70 -71 0
3 33 69 70 71 0
-27 -34 0
-27 -51 0
-27 -72 0
-27 -73 0
-27 -74 0
-27 -75 0
-34 -51 0
-34 -72 0
-34 -73 0
-34 -74 0
-34 -75 0
-51 -72 0
-51 -73 0
-51 -74 0
-51 -75 0
-72 -73 0
-72 -74 0
-72 -75 0
-73 -74 0
-73 -75 0
-74 -75 0
27 34 51 72 73 74 75 0
-55 -62 0
-55 -76 0
-55 -77 0
-55 -78 0
-55 -79 0
-55 -80 0
-55 -81 0
-62 -76 0
-62 -77 0
-62 -78 0
-62 -79 0
-62 -80 0
-62 -81 0
-76 -77 0
-76 -78 0
-76 -79 0
-76 -80 0
-76 -81 0
-77 -78 0
-77 -79 0
-77 -80 0
-77 -81 0
-78 -79 0
-78 -80 0
-78 -81 0
-79 -80 0
-79 -81 0
-80 -81 0
55 62 76 77 78 79 80 81 0
-4 -63 0
-4 -72 0
-4 -76 0
-4 -82 0
-4 -83 0
-4 -84 0
-4 -85 0
-63 -72 0
-63 -76 0
-63 -82 0
-63 -83 0
-63 -84 0
-63 -85 0
-72 -76 0
-72 -82 0
-72 -83 0
-72 -84 0
-72 -85 0
-76 -82 0
-76 -83 0
-76 -84 0
-76 -85 0
-82 -83 0
-82 -84 0
-82 -85 0
-83 -84 0
-83 -85 0
-84 -85 0
4 63 72 76 82 83 84 85 0
-10 -19 0
-10 -23 0
-10 -56 0
-10 -69 0
-10 -86 0
-19 -23 0
-19 -56 0
-19 -69 0
-19 -86 0
-23 -56 0
-23 -69 0
-23 -86 0
-56 -69 0
-56 -86 0
-69 -86 0
10 19 23 56 69 86 0
-39 -45 0
-39 -87 0
-39 -88 0
-45 -87 0
-45 -88 0
-87 -88 0
39 45 87 88 0
-11 -24 0
-11 -57 0
-11 -64 0
-11 -77 0
-11 -82 0
-11 -89 0
-11 -90 0
-24 -57 0
-24 -64 0
-24 -77 0
-24 -82 0
-24 -89 0
-24 -90 0
-57 -64 0
-57 -77 0
-57 -82 0
-57 -89 0
-57 -90 0
-64 -77 0
-64 -82 0
-64 -89 0
-64 -90 0
-77 -82 0
-77 -89 0
-77 -90 0
-82 -89 0
-82 -90 0
-89 -90 0
11 24 57 64 77 82 89 90 0
-40 -78 0
-40 -83 0
-40 -91 0
-40 -92 0
-78 -83 0
-78 -91 0
-78 -92 0
-83 -91 0
-83 -92 0
-91 -92 0
40 78 83 91 92 0
-28 -58 0
-28 -65 0
-28 -73 0
-28 -93 0
-58 -65 0
-58 -73 0
-58 -93 0
-65 -73 0
-65 -93 0
-73 -93 0
28 58 65 73 93 0
-5 -12 0
-5 -25 0
-5 -32 0
-5 -35 0
-5 -52 0
-5 -66 0
-5 -70 0
-5 -74 0
-5 -87 0
-5 -91 0
-5 -94 0
-5 -95 0
-12 -25 0
-12 -32 0
-12 -35 0
-12 -52 0
-12 -66 0
-12 -70 0
-12 -74 0
-12 -87 0
-12 -91 0
-12 -94 0
-12 -95 0
-25 -32 0
-25 -35 0
-25 -52 0
-25 -66 0
-25 -70 0
-25 -74 0
-25 -87 0
-25 -91 0
-25 -94 0
-25 -95 0
-32 -35 0
-32 -52 0
-32 -66 0
-32 -70 0
-32 -74 0
-32 -87 0
-32 -91 0
-32 -94 0
-32 -95 0
-35 -52 0
-35 -66 0
-35 -70 0
-35 -74 0
-35 -87 0
-35 -91 0
-35 -94 0
-35 -95 0
-52 -66 0
-52 -70 0
-52 -74 0
-52 -87 0
-52 -91 0
-52 -94 0
-52 -95 0
-66 -70 0
-66 -74 0
-66 -87 0
-66 -91 0
-66 -94 0
-66 -95 0
-70 -74 0
-70 -87 0
-70 -91 0
-70 -94 0
-70 -95 0
-74 -87 0
-74 -91 0
-74 -94 0
-74 -95 0
-87 -91 0
-87 -94 0
-87 -95 0
-91 -94 0
-91 -95 0
-94 -95 0
5 12 25 32 35 52 66 70 74 87 91 94 95 0
-6 -29 0
-6 -46 0
-6 -89 0
-6 -96 0
-29 -46 0
-29 -89 0
-29 -96 0
-46 -89 0
-46 -96 0
-89 -96 0
6 29 46 89 96 0
-15 -20 0
-15 -47 0
-15 -59 0
-15 -93 0
-15 -97 0
-15 -98 0
-20 -47 0
-20 -59 0
-20 -93 0
-20 -97 0
-20 -98 0
-47 -59 0
-47 -93 0
-47 -97 0
-47 -98 0
-59 -93 0
-59 -97 0
-59 -98 0
-93 -97 0
-93 -98 0
-97 -98 0
15 20 47 59 93 97 98 0
-13 -67 0
-13 -97 0
-13 -99 0
-13 -100 0
-13 -101 0
-13 -102 0
-13 -103 0
-67 -97 0
-67 -99 0
-67 -100 0
-67 -101 0
-67 -102 0
-67 -103 0
-97 -99 0
-97 -100 0
-97 -101 0
-97 -102 0
-97 -103 0
-99 -100 0
-99 -101 0
-99 -102 0
-99 -103 0
-100 -101 0
-100 -102 0
-100 -103 0
-101 -102 0
-101 -103 0
-102 -103 0
13 67 97 99 100 101 102 103 0
-60 -88 0
-60 -90 0
-88 -90 0
60 88 90 0
-41 -94 0
-41 -96 0
-41 -98 0
-41 -99 0
-41 -104 0
-94 -96 0
-94 -98 0
-94 -99 0
-94 -104 0
-96 -98 0
-96 -99 0
-96 -104 0
-98 -99 0
-98 -104 0
-99 -104 0
41 94 96 98 99 104 0
-79 -84 0
-79 -95 0
-79 -100 0
-79 -105 0
-84 -95 0
-84 -100 0
-84 -105 0
-95 -100 0
-95 -105 0
-100 -105 0
79 84 95 100 105 0
-16 -42 0
-16 -53 0
-16 -85 0
-16 -86 0
-16 -101 0
-42 -53 0
-42 -85 0
-42 -86 0
-42 -101 0
-53 -85 0
-53 -86 0
-53 -101 0
-85 -86 0
-85 -101 0
-86 -101 0
16 42 53 85 86 101 0
-48 -68 0
-48 -80 0
-48 -105 0
-48 -106 0
-68 -80 0
-68 -105 0
-68 -106 0
-80 -105 0
-80 -106 0
-105 -106 0
48 68 80 105 106 0
-43 -61 0
-43 -81 0
-43 -92 0
-43 -107 0
-61 -81 0
-61 -92 0
-61 -107 0
-81 -92 0
-81 -107 0
-92 -107 0
43 61 81 92 107 0
-17 -54 0
-17 -75 0
-17 -102 0
-17 -104 0
-54 -75 0
-54 -102 0
-54 -104 0
-75 -102 0
-75 -104 0
-102 -104 0
17 54 75 102 104 0
-14 -18 0
-14 -26 0
-14 -49 0
-14 -71 0
-14 -103 0
-14 -106 0
-14 -107 0
-18 -26 0
-18 -49 0
-18 -71 0
-18 -103 0
-18 -106 0
-18 -107 0
-26 -49 0
-26 -71 0
-26 -103 0
-26 -106 0
-26 -107 0
-49 -71 0
-49 -103 0
-49 -106 0
-49 -107 0
-71 -103 0
-71 -106 0
-71 -107 0
-103 -106 0
-103 -107 0
-106 -107 0
14 18 26 49 71 103 106 107 0
